(set-logic QF_NRA)
(declare-fun duscore1dollarsk!0 () Real)
(declare-fun b () Real)
(declare-fun m () Real)
(declare-fun d () Real)
(declare-fun muscore1dollarsk!1 () Real)
(declare-fun vdesuscore1dollarsk!2 () Real)
(assert (let ((a!1 (+ (* 4.0 (* d d)) (* 8.0 (* b m))))
              (a!2 (+ (* 4.0 (* d d))
                      (* (- 4.0) (* duscore1dollarsk!0 duscore1dollarsk!0))
                      (* 8.0 (* b m))
                      (* (- 8.0) (* b muscore1dollarsk!1)))))
          (or (not (>= a!1 0.0))
              (= b 0.0)
              (and (or (= b 0.0) (= a!2 0.0) (not (>= a!2 0.0)))
                   (or (and (not (= (+ (* 2.0 (* d d))
                                       (* (- 2.0)
                                          (* duscore1dollarsk!0
                                             duscore1dollarsk!0))
                                       (* 4.0 (* b m))
                                       (* (- 4.0) (* b muscore1dollarsk!1)))
                                    0.0))
                            (not (= b 0.0)))
                       (= b 0.0)
                       (not (<= b 0.0)))
                   (not (= b 0.0)))
              (and (not (<= a!1 0.0)) (not (>= a!1 0.0)))
              (and (or (= b 0.0) (not (>= b 0.0))) (>= duscore1dollarsk!0 0.0)))))
(assert (>= vdesuscore1dollarsk!2 0.0))
(assert (>= d 0.0))
(assert (not (<= b 0.0)))
(assert (not (<= (+ (* d d) (* (- 1.0) duscore1dollarsk!0 duscore1dollarsk!0))
                 (* 2.0 b (+ muscore1dollarsk!1 (* (- 1.0) m))))))
(assert (let ((a!1 (+ (* 4.0 (* d d)) (* 8.0 (* b m))))
              (a!2 (+ (* 4.0 (* d d))
                      (* (- 4.0) (* duscore1dollarsk!0 duscore1dollarsk!0))
                      (* 8.0 (* b m))
                      (* (- 8.0) (* b muscore1dollarsk!1)))))
          (or (not (>= a!1 0.0))
              (= b 0.0)
              (and (or (= b 0.0) (= a!2 0.0) (not (>= a!2 0.0)))
                   (or (and (not (= (+ (* 2.0 (* d d))
                                       (* (- 2.0)
                                          (* duscore1dollarsk!0
                                             duscore1dollarsk!0))
                                       (* 4.0 (* b m))
                                       (* (- 4.0) (* b muscore1dollarsk!1)))
                                    0.0))
                            (not (= b 0.0)))
                       (= b 0.0)
                       (not (<= b 0.0)))
                   (not (= b 0.0)))
              (not (<= a!1 0.0))
              (and (or (= b 0.0) (not (>= b 0.0)))
                   (<= a!1 0.0)
                   (>= duscore1dollarsk!0 0.0)))))
(assert (let ((a!1 (+ (* 4.0 (* d d))
                      (* (- 4.0) (* duscore1dollarsk!0 duscore1dollarsk!0))
                      (* 8.0 (* b m))
                      (* (- 8.0) (* b muscore1dollarsk!1)))))
          (or (= b 0.0)
              (and (or (= b 0.0) (= a!1 0.0) (not (>= a!1 0.0)))
                   (or (and (not (= (+ (* 2.0 (* d d))
                                       (* (- 2.0)
                                          (* duscore1dollarsk!0
                                             duscore1dollarsk!0))
                                       (* 4.0 (* b m))
                                       (* (- 4.0) (* b muscore1dollarsk!1)))
                                    0.0))
                            (not (= b 0.0)))
                       (= b 0.0)
                       (not (<= b 0.0)))
                   (or (not (= (+ (* d d) (* 2.0 (* b m))) 0.0))
                       (not (= b 0.0))))
              (and (or (= b 0.0) (not (>= b 0.0))) (>= duscore1dollarsk!0 0.0)))))
(assert (let ((a!1 (+ (* 4.0 (* duscore1dollarsk!0 duscore1dollarsk!0))
                      (* 8.0 (* b muscore1dollarsk!1))))
              (a!2 (<= (+ (* 4.0 d d)
                          (* (- 4.0) (* duscore1dollarsk!0 duscore1dollarsk!0))
                          (* 8.0 b m)
                          (* (- 8.0) (* b muscore1dollarsk!1)))
                       0.0))
              (a!3 (+ (* 16.0 d d d d)
                      (* (- 32.0) d d duscore1dollarsk!0 duscore1dollarsk!0)
                      (* 64.0 b d d m)
                      (* (- 64.0) b d d muscore1dollarsk!1)
                      (* 16.0
                         duscore1dollarsk!0
                         duscore1dollarsk!0
                         duscore1dollarsk!0
                         duscore1dollarsk!0)
                      (* (- 64.0) b duscore1dollarsk!0 duscore1dollarsk!0 m)
                      (* 64.0
                         b
                         duscore1dollarsk!0
                         duscore1dollarsk!0
                         muscore1dollarsk!1)
                      (* 64.0 b b m m)
                      (* (- 128.0) b b m muscore1dollarsk!1)
                      (* 64.0 b b muscore1dollarsk!1 muscore1dollarsk!1)))
              (a!4 (+ (* 16.0 (* duscore1dollarsk!0 duscore1dollarsk!0))
                      (* 32.0 (* b muscore1dollarsk!1)))))
          (or (not (>= a!1 0.0))
              (and (or (= b 0.0) (not (>= b 0.0)))
                   (or (not (= b 0.0))
                       (and (or a!2 (<= a!3 0.0)) a!2 (>= a!3 0.0))))
              (and (<= a!1 0.0) (not (= a!1 0.0)))
              (and (or (= b 0.0) (not (<= b 0.0)))
                   (or (not (= b 0.0)) (and (<= a!4 0.0) (not (= a!4 0.0))))
                   (>= duscore1dollarsk!0 0.0)))))
(assert (let ((a!1 (+ (* 4.0 (* duscore1dollarsk!0 duscore1dollarsk!0))
                      (* 8.0 (* b muscore1dollarsk!1))))
              (a!2 (<= (+ (* 4.0 d d)
                          (* (- 4.0) (* duscore1dollarsk!0 duscore1dollarsk!0))
                          (* 8.0 b m)
                          (* (- 8.0) (* b muscore1dollarsk!1)))
                       0.0))
              (a!3 (+ (* 16.0 d d d d)
                      (* (- 32.0) d d duscore1dollarsk!0 duscore1dollarsk!0)
                      (* 64.0 b d d m)
                      (* (- 64.0) b d d muscore1dollarsk!1)
                      (* 16.0
                         duscore1dollarsk!0
                         duscore1dollarsk!0
                         duscore1dollarsk!0
                         duscore1dollarsk!0)
                      (* (- 64.0) b duscore1dollarsk!0 duscore1dollarsk!0 m)
                      (* 64.0
                         b
                         duscore1dollarsk!0
                         duscore1dollarsk!0
                         muscore1dollarsk!1)
                      (* 64.0 b b m m)
                      (* (- 128.0) b b m muscore1dollarsk!1)
                      (* 64.0 b b muscore1dollarsk!1 muscore1dollarsk!1)))
              (a!4 (+ (* 16.0 (* duscore1dollarsk!0 duscore1dollarsk!0))
                      (* 32.0 (* b muscore1dollarsk!1)))))
          (or (not (>= a!1 0.0))
              (and (or (= b 0.0) (not (>= b 0.0)))
                   (or (not (= b 0.0))
                       (and (or a!2 (<= a!3 0.0))
                            a!2
                            (>= a!3 0.0)
                            (or (not (= a!3 0.0)) (<= a!4 0.0)))))
              (not (= a!1 0.0))
              (and (or (= b 0.0) (not (<= b 0.0)))
                   (or (not (= b 0.0)) (not (= a!4 0.0)))
                   (<= a!1 0.0)
                   (>= duscore1dollarsk!0 0.0)))))
(assert (let ((a!1 (not (>= (+ (* 4.0 d d) (* 8.0 b m)) 0.0)))
              (a!2 (<= (+ (* 4.0 d d)
                          (* (- 4.0) duscore1dollarsk!0 duscore1dollarsk!0)
                          (* 8.0 b m)
                          (* (- 8.0) b muscore1dollarsk!1))
                       0.0))
              (a!3 (+ (* 16.0 d d d d)
                      (* (- 32.0) d d duscore1dollarsk!0 duscore1dollarsk!0)
                      (* 64.0 b d d m)
                      (* (- 64.0) b d d muscore1dollarsk!1)
                      (* 16.0
                         duscore1dollarsk!0
                         duscore1dollarsk!0
                         duscore1dollarsk!0
                         duscore1dollarsk!0)
                      (* (- 64.0) b duscore1dollarsk!0 duscore1dollarsk!0 m)
                      (* 64.0
                         b
                         duscore1dollarsk!0
                         duscore1dollarsk!0
                         muscore1dollarsk!1)
                      (* 64.0 b b m m)
                      (* (- 128.0) b b m muscore1dollarsk!1)
                      (* 64.0 b b muscore1dollarsk!1 muscore1dollarsk!1))))
          (or a!1
              (and (or (= b 0.0) (not (>= b 0.0))) (not (= b 0.0)))
              (and (not (<= (+ (* 4.0 d d) (* 8.0 b m)) 0.0)) a!1)
              (and (or (= b 0.0) (not (<= b 0.0)))
                   (or (not (= b 0.0))
                       (and (or a!2 (<= a!3 0.0)) a!2 (>= a!3 0.0)))
                   (>= duscore1dollarsk!0 0.0)))))
(assert (let ((a!1 (<= (+ (* 4.0 d d) (* 8.0 b m)) 0.0))
              (a!2 (<= (+ (* 4.0 d d)
                          (* (- 4.0) duscore1dollarsk!0 duscore1dollarsk!0)
                          (* 8.0 b m)
                          (* (- 8.0) b muscore1dollarsk!1))
                       0.0))
              (a!3 (+ (* 16.0 d d d d)
                      (* (- 32.0) d d duscore1dollarsk!0 duscore1dollarsk!0)
                      (* 64.0 b d d m)
                      (* (- 64.0) b d d muscore1dollarsk!1)
                      (* 16.0
                         duscore1dollarsk!0
                         duscore1dollarsk!0
                         duscore1dollarsk!0
                         duscore1dollarsk!0)
                      (* (- 64.0) b duscore1dollarsk!0 duscore1dollarsk!0 m)
                      (* 64.0
                         b
                         duscore1dollarsk!0
                         duscore1dollarsk!0
                         muscore1dollarsk!1)
                      (* 64.0 b b m m)
                      (* (- 128.0) b b m muscore1dollarsk!1)
                      (* 64.0 b b muscore1dollarsk!1 muscore1dollarsk!1))))
          (or (not (>= (+ (* 4.0 d d) (* 8.0 b m)) 0.0))
              (and (or (= b 0.0) (not (>= b 0.0))) (not (= b 0.0)))
              (not a!1)
              (and (or (= b 0.0) (not (<= b 0.0)))
                   (or (not (= b 0.0))
                       (and (or a!2 (<= a!3 0.0)) a!2 (>= a!3 0.0)))
                   a!1
                   (>= duscore1dollarsk!0 0.0)))))
(assert (or (and (or (= b 0.0) (not (>= b 0.0)))
                 (or (not (= b 0.0)) (<= (+ (* d d) (* 2.0 b m)) 0.0))
                 (or (not (= (+ (* d d) (* 2.0 b m)) 0.0)) (not (= b 0.0))))
            (and (or (= b 0.0) (not (<= b 0.0)))
                 (or (not (= b 0.0))
                     (>= (+ (* duscore1dollarsk!0 duscore1dollarsk!0)
                            (* 2.0 b muscore1dollarsk!1))
                         0.0))
                 (>= duscore1dollarsk!0 0.0))))
(assert (let ((a!1 (+ (* 4.0 d d)
                      (* (- 4.0) duscore1dollarsk!0 duscore1dollarsk!0)
                      (* 8.0 b m)
                      (* (- 8.0) b muscore1dollarsk!1))))
          (or (= b 0.0)
              (and (or (= b 0.0) (= a!1 0.0) (not (>= a!1 0.0)))
                   (>= duscore1dollarsk!0 0.0)))))
(check-sat)
